/* Graphe sans poids sur les arcs */

data;

param n:= 7;

set  E :=
   1 2
   1 4
   2 1
   2 3
   2 5
   3 2
   3 5
   3 6
   4 1
   4 5
   4 7
   5 2
   5 3
   5 4
   5 6
   5 7
   6 3
   6 5
   6 7
   7 4
   7 5
   7 6
   ;

end;

